(set-logic QF_S)
(declare-fun var0 () String)
(assert (str.in.re var0 (re.++ (re.union (re.* (re.union (re.union (re.* (re.* (re.union (re.* (re.union (re.+ (str.to.re "0")) (re.+ (str.to.re "111")))) (re.* (re.union (re.* (str.to.re "2")) (re.* (str.to.re "333"))))))) (re.* (re.+ (re.+ (re.+ (re.union (re.+ (str.to.re "4")) (re.+ (str.to.re "5")))))))) (re.union (re.* (re.+ (re.* (re.union (re.union (re.union (str.to.re "666") (str.to.re "7")) (re.union (str.to.re "8") (str.to.re "9"))) (re.union (re.+ (str.to.re "a")) (re.+ (str.to.re "b"))))))) (re.* (re.* (re.+ (re.* (re.+ (re.* (str.to.re "ccc")))))))))) (re.* (re.union (re.union (re.* (re.+ (re.* (re.+ (re.union (re.+ (str.to.re "dd")) (re.+ (str.to.re "e"))))))) (re.* (re.union (re.union (re.* (re.+ (re.+ (str.to.re "f")))) (re.* (re.* (re.+ (str.to.re "g"))))) (re.union (re.+ (re.union (re.union (str.to.re "hh") (str.to.re "ii")) (re.union (str.to.re "jj") (str.to.re "kkk")))) (re.+ (re.+ (re.* (str.to.re "lll")))))))) (re.union (re.union (re.union (re.* (re.union (re.+ (re.+ (str.to.re "mm"))) (re.+ (re.* (str.to.re "nn"))))) (re.* (re.union (re.union (re.* (str.to.re "oo")) (re.* (str.to.re "p"))) (re.union (re.+ (str.to.re "qqq")) (re.+ (str.to.re "rr")))))) (re.union (re.* (re.+ (re.+ (re.* (str.to.re "ss"))))) (re.* (re.+ (re.* (re.union (str.to.re "ttt") (str.to.re "uu"))))))) (re.union (re.* (re.union (re.* (re.* (re.union (str.to.re "vvv") (str.to.re "www")))) (re.* (re.+ (re.union (str.to.re "xxx") (str.to.re "yyy")))))) (re.* (re.* (re.union (re.union (re.+ (str.to.re "z")) (re.+ (str.to.re "AA"))) (re.union (re.+ (str.to.re "B")) (re.+ (str.to.re "C"))))))))))) (re.+ (re.union (re.* (re.* (re.* (re.* (re.* (re.* (re.* (re.+ (str.to.re "D"))))))))) (re.* (re.union (re.* (re.* (re.* (re.+ (re.+ (re.* (str.to.re "E"))))))) (re.* (re.union (re.+ (re.* (re.union (re.+ (str.to.re "FFF")) (re.+ (str.to.re "G"))))) (re.+ (re.+ (re.* (re.+ (str.to.re "HH"))))))))))))))
(assert (<= 15 (str.len var0)))
(check-sat)